NAME : X-n219-k73
COMMENT : "Generated by Uchoa, Pecin, Pessoa, Poggi, Subramanian, and Vidal (2013)"
TYPE : CVRP
DIMENSION : 219
EDGE_WEIGHT_TYPE : EUC_2D
CAPACITY : 3
NODE_COORD_SECTION
1 0 0
2 18 761
3 835 397
4 299 16
5 31 168
6 142 257
7 242 984
8 612 357
9 663 812
10 105 188
11 487 636
12 993 703
13 672 148
14 506 259
15 953 706
16 888 203
17 107 534
18 772 692
19 475 182
20 828 775
21 719 220
22 655 722
23 844 197
24 918 600
25 460 844
26 739 102
27 301 523
28 341 627
29 989 936
30 935 602
31 44 72
32 861 67
33 163 416
34 981 503
35 722 397
36 317 903
37 547 95
38 944 106
39 935 192
40 128 376
41 908 176
42 720 226
43 738 793
44 791 498
45 712 751
46 530 693
47 141 673
48 380 544
49 634 301
50 427 853
51 606 949
52 47 557
53 48 202
54 791 67
55 546 876
56 526 842
57 535 216
58 828 214
59 829 352
60 623 473
61 374 1000
62 74 187
63 275 415
64 726 789
65 51 597
66 894 395
67 159 743
68 301 893
69 755 946
70 978 261
71 709 153
72 391 153
73 876 370
74 846 725
75 604 107
76 117 709
77 507 89
78 348 744
79 476 204
80 181 957
81 948 710
82 158 788
83 414 685
84 358 66
85 196 732
86 283 343
87 456 931
88 5 468
89 459 43
90 555 414
91 94 964
92 558 360
93 641 424
94 132 16
95 777 947
96 25 205
97 852 45
98 5 686
99 400 682
100 501 234
101 905 968
102 492 971
103 817 114
104 651 941
105 817 643
106 735 937
107 333 829
108 223 584
109 306 412
110 209 663
111 206 549
112 542 691
113 296 10
114 215 747
115 148 641
116 9 553
117 411 59
118 382 800
119 824 612
120 608 727
121 481 574
122 169 950
123 350 608
124 396 536
125 36 459
126 359 339
127 798 917
128 10 569
129 813 10
130 569 627
131 692 467
132 166 178
133 247 413
134 738 487
135 508 327
136 158 986
137 983 244
138 637 109
139 177 207
140 357 374
141 361 972
142 365 701
143 582 957
144 712 996
145 932 452
146 847 981
147 60 66
148 252 267
149 944 435
150 338 688
151 900 168
152 583 871
153 852 59
154 921 72
155 845 534
156 387 253
157 812 354
158 5 404
159 590 575
160 930 128
161 184 742
162 832 466
163 285 346
164 548 976
165 32 531
166 966 58
167 31 40
168 162 539
169 621 425
170 802 495
171 385 493
172 769 329
173 921 15
174 64 106
175 854 678
176 943 122
177 103 285
178 304 739
179 398 212
180 335 459
181 43 108
182 400 255
183 935 851
184 179 147
185 822 749
186 60 32
187 829 992
188 783 760
189 218 360
190 321 463
191 403 172
192 32 134
193 218 490
194 44 456
195 430 570
196 896 875
197 509 572
198 424 936
199 639 505
200 914 852
201 984 435
202 479 341
203 207 937
204 709 700
205 235 795
206 557 130
207 270 964
208 482 320
209 60 761
210 836 272
211 413 327
212 509 379
213 961 329
214 819 754
215 176 910
216 648 809
217 640 892
218 838 79
219 552 232
PICKUP_AND_DELIVERY_SECTION
1 0 0 1000000000 0 0 0
2 0 0 1000000000 0 0.02365 0.9763
3 0 0 1000000000 0 0.4754 0.5246
4 0 0 1000000000 0 0.05351 0.9465
5 0 0 1000000000 0 0.1845 0.8155
6 0 0 1000000000 0 0.5525 0.4475
7 0 0 1000000000 0 0.2459 0.7541
8 0 0 1000000000 0 0.5833 0.4167
9 0 0 1000000000 0 0.8165 0.1835
10 0 0 1000000000 0 0.5585 0.4415
11 0 0 1000000000 0 0.7657 0.2343
12 0 0 1000000000 0 0.708 0.292
13 0 0 1000000000 0 0.2202 0.7798
14 0 0 1000000000 0 0.5119 0.4881
15 0 0 1000000000 0 0.7408 0.2592
16 0 0 1000000000 0 0.2286 0.7714
17 0 0 1000000000 0 0.2004 0.7996
18 0 0 1000000000 0 0.8964 0.1036
19 0 0 1000000000 0 0.3832 0.6168
20 0 0 1000000000 0 0.936 0.06401
21 0 0 1000000000 0 0.306 0.694
22 0 0 1000000000 0 0.9072 0.0928
23 0 0 1000000000 0 0.2334 0.7666
24 0 0 1000000000 0 0.6536 0.3464
25 0 0 1000000000 0 0.545 0.455
26 0 0 1000000000 0 0.138 0.862
27 0 0 1000000000 0 0.5755 0.4245
28 0 0 1000000000 0 0.5439 0.4561
29 0 0 1000000000 0 0.9464 0.05359
30 0 0 1000000000 0 0.6439 0.3561
31 0 0 1000000000 0 0.6111 0.3889
32 0 0 1000000000 0 0.07782 0.9222
33 0 0 1000000000 0 0.3918 0.6082
34 0 0 1000000000 0 0.5127 0.4873
35 0 0 1000000000 0 0.5499 0.4501
36 0 0 1000000000 0 0.3511 0.6489
37 0 0 1000000000 0 0.1737 0.8263
38 0 0 1000000000 0 0.1123 0.8877
39 0 0 1000000000 0 0.2053 0.7947
40 0 0 1000000000 0 0.3404 0.6596
41 0 0 1000000000 0 0.1938 0.8062
42 0 0 1000000000 0 0.3139 0.6861
43 0 0 1000000000 0 0.9306 0.06936
44 0 0 1000000000 0 0.6296 0.3704
45 0 0 1000000000 0 0.9481 0.05193
46 0 0 1000000000 0 0.7648 0.2352
47 0 0 1000000000 0 0.2095 0.7905
48 0 0 1000000000 0 0.6985 0.3015
49 0 0 1000000000 0 0.4748 0.5252
50 0 0 1000000000 0 0.5006 0.4994
51 0 0 1000000000 0 0.6386 0.3614
52 0 0 1000000000 0 0.08438 0.9156
53 0 0 1000000000 0 0.2376 0.7624
54 0 0 1000000000 0 0.0847 0.9153
55 0 0 1000000000 0 0.6233 0.3767
56 0 0 1000000000 0 0.6247 0.3753
57 0 0 1000000000 0 0.4037 0.5963
58 0 0 1000000000 0 0.2585 0.7415
59 0 0 1000000000 0 0.4246 0.5754
60 0 0 1000000000 0 0.7592 0.2408
61 0 0 1000000000 0 0.374 0.626
62 0 0 1000000000 0 0.3957 0.6043
63 0 0 1000000000 0 0.6627 0.3373
64 0 0 1000000000 0 0.9202 0.07985
65 0 0 1000000000 0 0.08543 0.9146
66 0 0 1000000000 0 0.4418 0.5582
67 0 0 1000000000 0 0.214 0.786
68 0 0 1000000000 0 0.3371 0.6629
69 0 0 1000000000 0 0.7981 0.2019
70 0 0 1000000000 0 0.2669 0.7331
71 0 0 1000000000 0 0.2158 0.7842
72 0 0 1000000000 0 0.3913 0.6087
73 0 0 1000000000 0 0.4224 0.5776
74 0 0 1000000000 0 0.857 0.143
75 0 0 1000000000 0 0.1772 0.8228
76 0 0 1000000000 0 0.165 0.835
77 0 0 1000000000 0 0.1755 0.8245
78 0 0 1000000000 0 0.4677 0.5323
79 0 0 1000000000 0 0.4286 0.5714
80 0 0 1000000000 0 0.1891 0.8109
81 0 0 1000000000 0 0.7489 0.2511
82 0 0 1000000000 0 0.2005 0.7995
83 0 0 1000000000 0 0.6044 0.3956
84 0 0 1000000000 0 0.1844 0.8156
85 0 0 1000000000 0 0.2678 0.7322
86 0 0 1000000000 0 0.8251 0.1749
87 0 0 1000000000 0 0.4898 0.5102
88 0 0 1000000000 0 0.01068 0.9893
89 0 0 1000000000 0 0.09368 0.9063
90 0 0 1000000000 0 0.7459 0.2541
91 0 0 1000000000 0 0.09751 0.9025
92 0 0 1000000000 0 0.6452 0.3548
93 0 0 1000000000 0 0.6615 0.3385
94 0 0 1000000000 0 0.1212 0.8788
95 0 0 1000000000 0 0.8205 0.1795
96 0 0 1000000000 0 0.122 0.878
97 0 0 1000000000 0 0.05282 0.9472
98 0 0 1000000000 0 0.00729 0.9927
99 0 0 1000000000 0 0.5865 0.4135
100 0 0 1000000000 0 0.4671 0.5329
101 0 0 1000000000 0 0.9349 0.06508
102 0 0 1000000000 0 0.5067 0.4933
103 0 0 1000000000 0 0.1395 0.8605
104 0 0 1000000000 0 0.6918 0.3082
105 0 0 1000000000 0 0.787 0.213
106 0 0 1000000000 0 0.7844 0.2156
107 0 0 1000000000 0 0.4017 0.5983
108 0 0 1000000000 0 0.3818 0.6182
109 0 0 1000000000 0 0.7427 0.2573
110 0 0 1000000000 0 0.3152 0.6848
111 0 0 1000000000 0 0.3752 0.6248
112 0 0 1000000000 0 0.7844 0.2156
113 0 0 1000000000 0 0.03378 0.9662
114 0 0 1000000000 0 0.2878 0.7122
115 0 0 1000000000 0 0.2309 0.7691
116 0 0 1000000000 0 0.01627 0.9837
117 0 0 1000000000 0 0.1436 0.8564
118 0 0 1000000000 0 0.4775 0.5225
119 0 0 1000000000 0 0.7427 0.2573
120 0 0 1000000000 0 0.8363 0.1637
121 0 0 1000000000 0 0.838 0.162
122 0 0 1000000000 0 0.1779 0.8221
123 0 0 1000000000 0 0.5757 0.4243
124 0 0 1000000000 0 0.7388 0.2612
125 0 0 1000000000 0 0.07843 0.9216
126 0 0 1000000000 0 0.9443 0.05571
127 0 0 1000000000 0 0.8702 0.1298
128 0 0 1000000000 0 0.01757 0.9824
129 0 0 1000000000 0 0.0123 0.9877
130 0 0 1000000000 0 0.9075 0.0925
131 0 0 1000000000 0 0.6749 0.3251
132 0 0 1000000000 0 0.9326 0.06742
133 0 0 1000000000 0 0.5981 0.4019
134 0 0 1000000000 0 0.6599 0.3401
135 0 0 1000000000 0 0.6437 0.3563
136 0 0 1000000000 0 0.1602 0.8398
137 0 0 1000000000 0 0.2482 0.7518
138 0 0 1000000000 0 0.1711 0.8289
139 0 0 1000000000 0 0.8551 0.1449
140 0 0 1000000000 0 0.9545 0.04545
141 0 0 1000000000 0 0.3714 0.6286
142 0 0 1000000000 0 0.5207 0.4793
143 0 0 1000000000 0 0.6082 0.3918
144 0 0 1000000000 0 0.7149 0.2851
145 0 0 1000000000 0 0.485 0.515
146 0 0 1000000000 0 0.8634 0.1366
147 0 0 1000000000 0 0.9091 0.09091
148 0 0 1000000000 0 0.9438 0.05618
149 0 0 1000000000 0 0.4608 0.5392
150 0 0 1000000000 0 0.4913 0.5087
151 0 0 1000000000 0 0.1867 0.8133
152 0 0 1000000000 0 0.6693 0.3307
153 0 0 1000000000 0 0.06925 0.9308
154 0 0 1000000000 0 0.07818 0.9218
155 0 0 1000000000 0 0.632 0.368
156 0 0 1000000000 0 0.6537 0.3463
157 0 0 1000000000 0 0.436 0.564
158 0 0 1000000000 0 0.01238 0.9876
159 0 0 1000000000 0 0.9746 0.02542
160 0 0 1000000000 0 0.1376 0.8624
161 0 0 1000000000 0 0.248 0.752
162 0 0 1000000000 0 0.5601 0.4399
163 0 0 1000000000 0 0.8237 0.1763
164 0 0 1000000000 0 0.5615 0.4385
165 0 0 1000000000 0 0.06026 0.9397
166 0 0 1000000000 0 0.06004 0.94
167 0 0 1000000000 0 0.775 0.225
168 0 0 1000000000 0 0.3006 0.6994
169 0 0 1000000000 0 0.6844 0.3156
170 0 0 1000000000 0 0.6172 0.3828
171 0 0 1000000000 0 0.7809 0.2191
172 0 0 1000000000 0 0.4278 0.5722
173 0 0 1000000000 0 0.01629 0.9837
174 0 0 1000000000 0 0.6038 0.3962
175 0 0 1000000000 0 0.7939 0.2061
176 0 0 1000000000 0 0.1294 0.8706
177 0 0 1000000000 0 0.3614 0.6386
178 0 0 1000000000 0 0.4114 0.5886
179 0 0 1000000000 0 0.5327 0.4673
180 0 0 1000000000 0 0.7298 0.2702
181 0 0 1000000000 0 0.3981 0.6019
182 0 0 1000000000 0 0.6375 0.3625
183 0 0 1000000000 0 0.9102 0.08984
184 0 0 1000000000 0 0.8212 0.1788
185 0 0 1000000000 0 0.9112 0.08881
186 0 0 1000000000 0 0.5333 0.4667
187 0 0 1000000000 0 0.8357 0.1643
188 0 0 1000000000 0 0.9706 0.02937
189 0 0 1000000000 0 0.6056 0.3944
190 0 0 1000000000 0 0.6933 0.3067
191 0 0 1000000000 0 0.4268 0.5732
192 0 0 1000000000 0 0.2388 0.7612
193 0 0 1000000000 0 0.4449 0.5551
194 0 0 1000000000 0 0.09649 0.9035
195 0 0 1000000000 0 0.7544 0.2456
196 0 0 1000000000 0 0.9766 0.02344
197 0 0 1000000000 0 0.8899 0.1101
198 0 0 1000000000 0 0.453 0.547
199 0 0 1000000000 0 0.7903 0.2097
200 0 0 1000000000 0 0.9322 0.06783
201 0 0 1000000000 0 0.4421 0.5579
202 0 0 1000000000 0 0.7119 0.2881
203 0 0 1000000000 0 0.2209 0.7791
204 0 0 1000000000 0 0.9873 0.01269
205 0 0 1000000000 0 0.2956 0.7044
206 0 0 1000000000 0 0.2334 0.7666
207 0 0 1000000000 0 0.2801 0.7199
208 0 0 1000000000 0 0.6639 0.3361
209 0 0 1000000000 0 0.07884 0.9212
210 0 0 1000000000 0 0.3254 0.6746
211 0 0 1000000000 0 0.7918 0.2082
212 0 0 1000000000 0 0.7446 0.2554
213 0 0 1000000000 0 0.3424 0.6576
214 0 0 1000000000 0 0.9206 0.07937
215 0 0 1000000000 0 0.1934 0.8066
216 0 0 1000000000 0 0.801 0.199
217 0 0 1000000000 0 0.7175 0.2825
218 0 0 1000000000 0 0.09427 0.9057
219 0 0 1000000000 0 0.4203 0.5797
